
  32    4
  10   10   10   10

   0   0   0   0   0   3 2 7 9 
   5   1   2   1   0   1 3 
   3   5   1   0   1   2 18 4 
   4   9   4   0   3   1 5 
   5   0   6   4   5   3 26 11 6 
   2   4   4   2   0   1 8 
   2   4   3   0   2   1 8 
   4   6   1   0   3   2 14 10 
   1   6   0   6   6   2 21 11 
   1   4   0   4   4   3 21 17 12 
   2   0   7   3   2   2 17 12 
  10   2   1   6   0   2 15 13 
   4   4   6   0   2   2 31 16 
  10   3   4   4   0   2 17 15 
   5   6   0   4   4   1 19 
   1   8   5   0   8   1 20 
   7   2   3   7   0   1 19 
   6   3   2   5   0   1 19 
   8   4   1   0   2   1 22 
   8   3   3   0   3   1 22 
   3   2   4   0   8   1 22 
   1   8   5   3   0   1 23 
   3   6   4   0   2   1 24 
   2   5   6   2   0   1 25 
  10   2   7   0   4   1 27 
   8   2   3   0   8   1 27 
   5   2   4   4   0   2 30 28 
   5   4   3   5   0   1 29 
   2   0   2   4   5   1 32
   7   2  10   0   4   1 32
   7   1   7   4   0   1 32
   0   0   0   0   0   0 
